letting maxWeight=85
letting values=[36, 28, 18, 26, 31, 31, 29, 13, 35, 37, 33, 16, 10, 2, 12, 3, 39, 43, 31, 7, 20, 1, 9, 17, 43, 22, 21, 26, 36, 11, 20, 43, 35, 14, 31, 41, 23, 7, 11, 24, 34, 32, 6, 19, 20, 40, 14, 39, 38, 39, 10]
letting weights=[19, 13, 7, 18, 2, 5, 13, 19, 15, 15, 21, 6, 10, 13, 11, 1, 20, 16, 11, 1, 8, 6, 15, 5, 11, 7, 11, 17, 17, 20, 5, 17, 9, 14, 16, 19, 14, 5, 19, 8, 15, 2, 21, 3, 5, 9, 2, 21, 3, 15, 2]
